c A SAT instance generated from a 3-CNF formula that had 18 clauses and 9 variables
p cnf 9 18
-3 4 9 0
-4 -1 5 0
7 6 1 0
-9 5 -8 0
-5 6 2 0
3 5 -8 0
1 -3 -5 0
6 -3 9 0
3 -6 7 0
-8 -2 -6 0
-1 -2 -9 0
1 -8 -4 0
5 -7 9 0
-8 -1 9 0
-9 3 -4 0
1 3 8 0
-3 1 4 0
2 -3 8 0
